50 350
1 4
1 6
1 9
1 11
1 43
1 44
1 46
1 50
2 6
2 14
2 16
2 17
2 21
2 23
2 25
2 26
2 28
2 32
2 36
2 40
2 46
2 47
2 48
3 4
3 10
3 11
3 13
3 16
3 22
3 29
3 37
3 43
3 47
3 48
3 49
4 6
4 8
4 9
4 10
4 12
4 26
4 31
4 34
4 36
4 37
4 41
4 46
5 13
5 16
5 17
5 21
5 25
5 27
5 28
5 31
5 41
5 44
5 45
5 46
5 48
6 8
6 19
6 26
6 33
6 38
6 43
6 44
6 46
6 47
6 50
7 16
7 17
7 18
7 19
7 21
7 24
7 25
7 29
7 30
7 34
7 36
7 38
7 42
7 44
7 46
7 47
8 10
8 15
8 19
8 21
8 22
8 23
8 25
8 27
8 32
8 33
8 36
8 38
8 41
8 42
8 45
8 47
8 48
8 50
9 12
9 17
9 18
9 21
9 28
9 29
9 32
9 33
9 35
9 42
9 44
9 48
10 11
10 13
10 15
10 16
10 20
10 26
10 27
10 34
10 36
10 39
10 44
10 45
11 18
11 20
11 21
11 31
11 32
11 38
11 39
11 40
11 43
12 16
12 19
12 21
12 23
12 29
12 32
12 33
12 34
12 35
12 36
12 38
12 42
12 47
12 48
13 15
13 17
13 18
13 21
13 29
13 30
13 32
13 44
13 46
13 49
13 50
14 15
14 16
14 20
14 21
14 24
14 25
14 27
14 30
14 42
15 20
15 24
15 27
15 30
15 38
15 40
15 49
15 50
16 17
16 20
16 28
16 31
16 32
16 34
16 45
16 49
16 50
17 18
17 20
17 26
17 30
17 31
17 34
17 36
17 39
17 42
17 47
17 49
18 23
18 24
18 30
18 33
18 34
18 45
18 46
18 47
19 23
19 29
19 32
19 34
19 36
19 43
20 24
20 27
20 30
20 39
20 40
20 43
20 44
20 46
20 48
20 50
21 25
21 29
21 38
21 41
21 43
21 45
21 48
22 23
22 25
22 26
22 38
22 45
22 46
23 28
23 30
23 31
23 33
23 42
23 45
23 48
23 49
23 50
24 28
24 30
24 33
24 35
24 43
24 44
25 26
25 28
25 33
25 41
25 49
26 35
26 46
26 47
26 49
27 28
27 30
27 31
27 33
27 34
27 37
27 43
27 49
28 30
28 31
28 33
28 36
28 42
28 45
28 46
28 48
28 49
29 34
29 35
29 36
29 37
29 38
29 44
29 46
30 32
30 36
30 44
30 45
30 46
31 32
31 38
31 40
32 34
32 37
32 39
32 41
32 47
32 49
33 35
33 36
33 37
33 40
33 43
33 46
33 48
33 50
34 35
34 40
34 42
34 44
34 45
34 46
34 47
34 48
35 36
35 41
35 44
35 45
35 46
36 37
36 40
36 41
36 42
36 43
36 46
37 43
37 46
37 48
37 50
38 39
38 40
38 44
39 42
39 43
39 49
41 46
41 47
41 48
42 43
42 45
43 45
43 48
43 50
44 45
44 48
45 46
45 50
46 48
46 50
47 48
